p wcnf 122 244 245 
1 -92 -52 0 
1 68 14 0 
1 -9 26 0 
1 122 -43 0 
1 -59 -115 0 
1 83 -101 0 
1 -12 -98 0 
1 30 -122 0 
1 -89 110 0 
1 -74 -58 0 
1 -37 -102 0 
1 100 -39 0 
1 57 -90 0 
1 -76 53 0 
1 30 -88 0 
1 -87 -108 0 
1 -117 -40 0 
1 -44 94 0 
1 39 18 0 
1 109 -59 0 
1 96 105 0 
1 -23 -19 0 
1 -106 52 0 
1 -93 -49 0 
1 -33 -100 0 
1 67 -116 0 
1 -80 -67 0 
1 -50 -105 0 
1 -88 -100 0 
1 -56 -69 0 
1 74 -48 0 
1 -113 -19 0 
1 122 -118 0 
1 -43 59 0 
1 -93 100 0 
1 100 99 0 
1 26 -101 0 
1 -67 -121 0 
1 -32 -74 0 
1 -53 -101 0 
1 99 40 0 
1 32 56 0 
1 -105 52 0 
1 89 -10 0 
1 -14 26 0 
1 -85 50 0 
1 24 11 0 
1 111 -67 0 
1 -69 106 0 
1 -70 36 0 
1 57 90 0 
1 -90 82 0 
1 60 20 0 
1 121 -39 0 
1 -14 -48 0 
1 70 46 0 
1 100 3 0 
1 96 -21 0 
1 116 72 0 
1 -76 78 0 
1 70 78 0 
1 -108 81 0 
1 4 -104 0 
1 10 -68 0 
1 75 57 0 
1 102 -34 0 
1 60 23 0 
1 37 -2 0 
1 42 78 0 
1 -54 96 0 
1 41 -2 0 
1 30 80 0 
1 -17 73 0 
1 93 120 0 
1 -90 29 0 
1 -59 1 0 
1 -60 -53 0 
1 -89 97 0 
1 32 97 0 
1 34 5 0 
1 -64 -99 0 
1 3 -102 0 
1 -76 -20 0 
1 30 87 0 
1 13 33 0 
1 -57 105 0 
1 102 -110 0 
1 27 30 0 
1 -59 30 0 
1 -3 53 0 
1 82 5 0 
1 108 -39 0 
1 -74 -93 0 
1 -83 25 0 
1 -23 51 0 
1 -80 96 0 
1 -30 -67 0 
1 -2 -43 0 
1 97 -80 0 
1 -45 50 0 
1 74 78 0 
1 44 -25 0 
1 91 -99 0 
1 34 -116 0 
1 114 110 0 
1 -16 -3 0 
1 32 -92 0 
1 -36 30 0 
1 112 -11 0 
1 -113 -59 0 
1 -60 78 0 
1 -54 -94 0 
1 -108 105 0 
1 -65 -115 0 
1 -55 -89 0 
1 57 -79 0 
1 85 -47 0 
1 92 -96 0 
1 -105 3 0 
1 59 -3 0 
1 -62 -102 0 
1 122 105 0 
1 73 70 0 
1 55 -21 0 
1 14 81 0 
1 19 60 0 
1 -99 -22 0 
1 17 -73 0 
1 60 -57 0 
1 -34 -1 0 
1 120 96 0 
1 -48 -94 0 
1 -104 -58 0 
1 -25 18 0 
1 57 12 0 
1 -114 115 0 
1 -29 -7 0 
1 118 73 0 
1 96 14 0 
1 13 83 0 
1 72 88 0 
1 73 33 0 
1 -78 32 0 
1 -4 21 0 
1 43 84 0 
1 2 -57 0 
1 78 13 0 
1 -78 38 0 
1 -20 36 0 
1 75 41 0 
1 103 -66 0 
1 84 81 0 
1 38 -110 0 
1 -95 108 0 
1 63 48 0 
1 -120 70 0 
1 1 74 0 
1 -99 6 0 
1 -98 103 0 
1 109 82 0 
1 -93 -102 0 
1 113 87 0 
1 -122 -54 0 
1 55 93 0 
1 -39 53 0 
1 -122 44 0 
1 118 -102 0 
1 50 -118 0 
1 -97 10 0 
1 122 -87 0 
1 68 -52 0 
1 -8 22 0 
1 78 -47 0 
1 96 -64 0 
1 -20 3 0 
1 2 -96 0 
1 -26 -37 0 
1 58 -23 0 
1 73 19 0 
1 42 49 0 
1 37 56 0 
1 64 28 0 
1 -108 -23 0 
1 -7 21 0 
1 46 -10 0 
1 58 -7 0 
1 -8 43 0 
1 -29 33 0 
1 -29 -47 0 
1 -25 97 0 
1 18 -5 0 
1 75 -67 0 
1 -96 70 0 
1 14 -113 0 
1 45 87 0 
1 -66 77 0 
1 72 24 0 
1 -2 -17 0 
1 -103 81 0 
1 88 94 0 
1 35 45 0 
1 56 -97 0 
1 96 39 0 
1 -4 113 0 
1 -56 60 0 
1 95 65 0 
1 105 97 0 
1 81 53 0 
1 -105 67 0 
1 -115 33 0 
1 86 39 0 
1 -111 -92 0 
1 -63 99 0 
1 -94 115 0 
1 -25 -41 0 
1 51 -68 0 
1 103 62 0 
1 -93 91 0 
1 47 -10 0 
1 72 86 0 
1 64 45 0 
1 -94 -43 0 
1 20 2 0 
1 82 -14 0 
1 -36 99 0 
1 29 11 0 
1 -95 -21 0 
1 27 11 0 
1 69 -63 0 
1 -122 94 0 
1 -82 20 0 
1 -112 -3 0 
1 21 -100 0 
1 91 98 0 
1 -100 119 0 
1 74 -12 0 
1 -43 62 0 
1 11 -97 0 
1 67 92 0 
1 20 62 0 
1 117 116 0 
1 19 83 0 
1 60 72 0 
1 -29 84 0 
